
Maximize
obj: 162 x60a +27 x592 +27 x575 +27 x4cf +20 x474 +55 x506 +26 x32b
	+131 x2f1 +27 x58b +186 x3cd +66 x551 +41 x597 +27 x4cc +129 x427 +27 x591
	+25 x5b1 +27 x58c +55 x504 +84 x3bb +79 x3be +104 x5aa +97 x54b +69 x5c6
	+100 x340 +63 x587 +20 x409 +168 x30e +20 x4e1 +23 x5e7 +81 x531 +39 x4fe
	+88 x544 +88 x545 +41 x595 +26 x329 +21 x35c +20 x406 +39 x527 +128 x605
	+69 x682 +40 x339 +20 x3dc +131 x2f3 +27 x4c6 +40 x33c +20 x3d9 +84 x3ba
	+30 x4ea +189 x2e4 +129 x12e +19 x5b8 +253 x4e9 +30 x4ec +20 x5cc +57 x5ea
	+27 x571 +66 x552 +26 x327 +82 x1e0 +79 x3c0 +93 x38b +19 x5b6 +27 x4d9
	+27 x58e +71 x1f3 +20 x55e +27 x4da +58 x1d6 +63 x229 +84 xe1 +19 x5b7
	+283 x1b3 +183 x2cc +194 x12 +186 x3c8 +44 x5b4 +178 x468 +93 xc1 +63 x588
	+183 x40 +25 x241 +57 x5e4 +110 x386 +88 x51e +105 x42b +41 x23b +40 x33a
	+78 x500 +44 x5b3 +27 x4db +41 x593 +25 x5ad +40 x336 +120 x350 +200 xb6
	+163 xb7 +70 x216 +207 x466 +120 x34f +19 x5b5 +25 x5ab +63 x58a +x1
	+162 x60c +104 x237 +85 x110 +100 x343 +20 x55b +27 x56f +163 xb8 +138 x65
	+69 x245 +27 x58d +112 x4f7 +156 x307 +96 x536 +x2da +110 x388 +76 x198
	+27 x58f +93 x38f +207 x155 +27 x4c9 +41 x23d +79 x3bd +81 x530 +183 x2ce
	+255 x316 +168 x6b +x31a +156 x302 +x2a6 +110 x385 +128 x609 +43 x3d6
	+71 x543 +183 x3d +112 x4f2 +223 x5dc +113 x2f6 +x2dc +104 x239 +39 x4ff
	+21 x434 +104 x50f +69 x681 +25 x5af +120 x79 +168 x312 +138 x30a +21 x359
	+183 x2d2 +39 x526 +194 x28f +97 x54a +193 x25a +25 x5b2 +105 x42a +78 x1c6
	+41 x23e +88 x51f +115 x3fb +65 x53f +100 x33e +27 x4d1 +85 x3fc +200 x379
	+93 x393 +107 x17b +189 x2e2 +183 x2d4 +113 x2f8 +104 x5a8 +58 x518 +23 x5ed
	+79 x3bf +82 x528 +94 x496 +41 x599 +96 x537 +27 x22d +27 x573 +65 x1f1
	+168 x30c +100 x342 +x31c +255 x69 +178 x469 +41 x23c +70 x56d +26 x325
	+76 x4bc +186 xee +110 x387 +21 x437 +84 x3bc +115 x3fa +104 x510 +186 x3ca
	+120 x34e

Subject To

x1 = 1459

x28f -xee -x3ca = 0
-x3cd +x12 -x3c8 = 0
-x60f +x28f -x60e = 0
x12 -x611 -x610 = 0
x12 -x2a6 +x28f >= 0
-x12 +x2a6 -x28f = 0
-x613 +x2a6 -x612 = 0
-x54b +x2cc -x54a = 0
-x198 +x2ce -x4bc = 0
x3d -x5dc -x25a = 0
-x587 -x588 +x2d2 = 0
-x216 -x56d +x2d4 = 0
-x229 +x40 -x58a = 0
-x623 +x2cc -x622 = 0
-x625 +x2ce -x624 = 0
-x627 +x3d -x626 = 0
-x628 +x2d2 -x629 = 0
-x62a -x62b +x2d4 = 0
-x62c -x62d +x40 = 0
-x2da +xee +x3ca >= 0
x2da -xee -x3ca = 0
x3cd +x3c8 -x2dc >= 0
-x3cd -x3c8 +x2dc = 0
-x62e +x2da -x62f = 0
-x630 -x631 +x2dc = 0
-xb6 -x379 +x2e2 = 0
x2e4 -xb7 -xb8 = 0
-x633 -x632 +x2e2 = 0
-x634 +x2e4 -x635 = 0
-x237 +x2eb -x5a8 = 0
-x5aa +x50 -x239 = 0
-x33c -x336 +x69 = 0
-x60a -x60c +x52 = 0
-x605 -x609 +x2ef = 0
-x339 -x33a +x316 = 0
-x637 -x636 +x30c = 0
-x639 -x638 +x30e = 0
-x63a -x63b +x69 = 0
-x63d -x63c +x312 = 0
-x63e -x63f +x6b = 0
-x640 -x641 +x316 = 0
-x2f1 -x307 +x2eb = 0
-x2f3 +x50 -x302 = 0
-x65 -x2f6 +x52 = 0
-x30a +x2ef -x2f8 = 0
-x2f1 -x307 +x30c = 0
x30e -x2f3 -x302 = 0
-x65 +x312 -x2f6 = 0
x6b -x30a -x2f8 = 0
x307 +x302 -x31a >= 0
-x307 -x302 +x31a = 0
x65 +x30a -x31c >= 0
-x65 -x30a +x31c = 0
-x642 -x643 +x31a = 0
-x644 -x645 +x31c = 0
-x466 -x155 +x79 = 0
-x468 +x34e -x469 = 0
x34f -xb6 -x379 = 0
x350 -xb7 -xb8 = 0
-x646 -x647 +x33e = 0
-x648 -x649 +x340 = 0
-x64a -x64b +x342 = 0
-x64c -x64d +x343 = 0
-x339 +x79 -x325 = 0
-x327 -x33a +x34e = 0
-x329 +x34f -x336 = 0
-x32b -x33c +x350 = 0
-x339 +x33e -x325 = 0
x340 -x327 -x33a = 0
-x329 -x336 +x342 = 0
-x32b -x33c +x343 = 0
-x3fb -x3fa +x379 = 0
xb6 -x110 -x3fc = 0
-x3cd +x9b -xee = 0
-x3c8 -x3ca +x9c = 0
-x64e -x64f +x3ca = 0
-x651 +xee -x650 = 0
-x3cd +x358 -x359 = 0
x358 -x653 -x652 = 0
-x35c +x35b -x3c8 = 0
-x654 -x655 +x35b = 0
-xb7 +x9b -x359 = 0
-x35c -xb8 +x9c = 0
-x3bd -x385 +x379 = 0
-x3be -x386 +xb6 = 0
xb7 -x387 -x3bf = 0
-x3c0 -x388 +xb8 = 0
xbd -x3bd -x385 = 0
xbd -xc1 -xe1 = 0
-x3be +xbe -x386 = 0
xbe -x3ba -x38b = 0
xbf -x387 -x3bf = 0
-x3bb +xbf -x393 = 0
-x3c0 +xc0 -x388 = 0
xc0 -x38f -x3bc = 0
-xe1 -xc1 +x3ca = 0
-x3ba -x38b +xee = 0
x3cd -x3bb -x393 = 0
x3c8 -x38f -x3bc = 0
-x427 -x12e +x3fa = 0
-x42b +x3d0 -x42a = 0
-x3fb -x3fc +xf7 = 0
xf4 -x110 -x3fa = 0
-x656 -x657 +x3fa = 0
-x3d6 +x3d5 -x3fb = 0
-x659 +x3d5 -x658 = 0
-x3d9 +x3d8 -x3fc = 0
-x65a -x65b +x3d8 = 0
-x3dc +x3db -x110 = 0
x3db -x65d -x65c = 0
x3d0 -x3d6 -x3fb = 0
-x3d9 -x3fc +xf7 = 0
-x3dc +xf4 -x110 = 0
x427 -x466 -x155 = 0
x12e -x468 -x469 = 0
-x12e -x42a +x117 = 0
-x427 -x42b +x401 = 0
x427 -x65f -x65e = 0
x12e -x661 -x660 = 0
x405 -x406 -x42a = 0
x405 -x663 -x662 = 0
x408 -x409 -x42b = 0
x408 -x665 -x664 = 0
-x406 -x42a +x117 = 0
-x409 -x42b +x401 = 0
x155 -x496 = 1
x466 -x17b = 8
x42e -x468 -x466 = 0
x42f -x155 -x469 = 0
-x666 -x667 +x155 = 0
-x669 +x466 -x668 = 0
-x468 +x433 -x434 = 0
-x66a -x66b +x433 = 0
x436 -x469 -x437 = 0
-x66d -x66c +x436 = 0
x42e -x468 -x434 = 0
x42f -x469 -x437 = 0
x15f -x496 -x17b = 0
x473 -x474 -x17b = 0
x473 -x671 -x670 = 0
-x672 >= -9
-x496 >= -1
-x474 +x15f -x17b = 0
-x675 >= -2
-x4d9 -x4da +x4bc = 0
-x4db +x198 -x4d1 = 0
-x4c6 +x4c5 -x4d1 = 0
x678 -x4d9 -x4c9 = 0
x4cb -x4cc -x4da = 0
x4cb -x67a -x679 = 0
-x4cf +x4ce -x4db = 0
x4ce -x67b -x67c = 0
-x4c6 +x54a -x4d1 = 0
x54b -x4d9 -x4c9 = 0
-x4cc -x4da +x4bc = 0
-x4cf -x4db +x198 = 0
x1b3 -x12 -x28f = 0
-x551 -x552 +x1ac = 0
x551 -x67e -x67d = 0
-x4e1 +x4e0 -x552 = 0
-x680 +x4e0 -x67f = 0
-x4e1 -x4e9 +x1ac = 0
-x4ea +x1b3 -x54a = 0
-x54b +x4e9 -x4ec = 0
x551 -x4ea -x510 = 0
-x4ec +x552 -x50f = 0
-x544 +x54a -x4f2 = 0
x54b -x545 -x4f7 = 0
-x544 +x4fe -x4f2 = 0
-x545 -x4f7 +x4ff = 0
x4fe -x500 -x530 = 0
-x531 -x1c6 +x4ff = 0
-x504 +x500 -x518 = 0
-x506 -x1d6 +x1c6 = 0
-x504 -x1f1 -x526 +x510 = 0
-x506 -x527 +x50f -x53f = 0
-x51e +x518 -x528 = 0
-x1e0 +x1d6 -x51f = 0
-x51e +x526 -x528 = 0
x527 -x1e0 -x51f = 0
-x1f3 -x536 +x530 = 0
x531 -x543 -x537 = 0
-x1f3 -x536 +x1f1 = 0
x53f -x543 -x537 = 0
-x682 +x555 -x245 = 0
x556 -x5c6 -x681 = 0
x55a -x55b -x245 = 0
x55a -x684 -x683 = 0
x55d -x5c6 -x55e = 0
x55d -x685 -x686 = 0
-x55b +x555 -x56d = 0
x556 -x55e -x216 = 0
-x587 -x56f +x5dc = 0
-x571 -x588 +x25a = 0
-x229 +x56d -x573 = 0
-x575 -x58a +x216 = 0
-x58b -x237 -x5b3 -x56f +x681 = 0
x682 -x5b4 -x571 -x58d -x5a8 = 0
-x5b5 +x245 -x58f -x239 -x573 = 0
-x575 -x591 -x5aa +x5c6 -x5b7 = 0
-x58b -x58c +x587 = 0
-x58e +x588 -x58d = 0
x229 -x58f -x22d = 0
-x592 -x591 +x58a = 0
x58c -x23b -x593 = 0
-x595 +x58e -x23c = 0
-x597 -x23d +x22d = 0
x592 -x23e -x599 = 0
-x593 -x5ab +x237 = 0
-x595 -x5ad +x5a8 = 0
-x597 -x5b6 +x239 -x5af = 0
-x5b1 +x5aa -x5b8 -x599 = 0
-x5b3 +x23b -x5ab = 0
-x5b4 -x5ad +x23c = 0
-x241 +x23d -x5af = 0
-x5b1 +x23e -x5b2 = 0
-x5b6 +x241 -x5b5 = 0
-x5b8 -x5b7 +x5b2 = 0
-x2e4 +x5dc -x2e2 = 0
x5c8 -x5dc -x25a = 0
-x687 +x5dc -x688 = 0
-x5cc +x5cb -x25a = 0
-x68a -x689 +x5cb = 0
-x5cc +x5c8 -x25a = 0
-x34f -x350 +x25b = 0
-x60a -x605 +x260 = 0
-x79 +x5e0 -x34e = 0
-x60c -x609 +x5e1 = 0
-x60a +x5e3 -x5e4 = 0
-x68c +x5e3 -x68b = 0
x5e6 -x5e7 -x605 = 0
x5e6 -x68e -x68d = 0
x5e9 -x5ea -x60c = 0
-x690 +x5e9 -x68f = 0
x5ec -x609 -x5ed = 0
x5ec -x691 -x692 = 0
-x60a -x5e4 +x25b = 0
-x5e7 -x605 +x260 = 0
-x5ea -x60c +x5e0 = 0
-x609 +x5e1 -x5ed = 0
-x3c8 +20 x3fa +20 x3fb -x3ca >= 0
-x427 +20 x466 -x42b +20 x155 >= 0
x5c6 +x681 -9 x5dc = 0
-x468 -x466 +20 x17b >= -160
-x155 +20 x496 -x469 >= -20
20 x427 +20 x12e -x110 -x3fa >= 0
20 x54b -x4d9 -x4da >= 0
-x60a -x605 +20 x350 +20 x34f >= 0
-x60c +20 x79 -x609 +20 x34e >= 0
-x3cd +20 x110 +20 x3fc -xee >= 0
-x551 +20 x12 -x552 +20 x28f >= 0
20 x42b +20 x42a -x3fb -x3fc >= 0
-x496 -x17b >= -20
x682 +x245 -9 x25a = 0
-x4db +20 x54a -x4d1 >= 0
-x12e +20 x468 -x42a +20 x469 >= 0
-9 x2e4 +x5dc +x25a -9 x2e2 = 0

Bounds
x60a >= 0
x592 >= 0
x575 >= 0
x63e >= 0
x63d >= 0
x5e6 >= 0
x42f >= 0
x4cf >= 0
x473 >= 0
x639 >= 0
x55a >= 0
x690 >= 0
x474 >= 0
x68c >= 0
x506 >= 0
x32b >= 0
x408 >= 0
x666 >= 0
x2f1 >= 0
x58b >= 0
x3cd >= 0
x655 >= 0
x551 >= 0
x625 >= 0
x597 >= 0
x654 >= 0
x55d >= 0
x68a >= 0
x64e >= 0
x4cc >= 0
x659 >= 0
x630 >= 0
x638 >= 0
x5e9 >= 0
x67a >= 0
x427 >= 0
x5ec >= 0
x4cb >= 0
x644 >= 0
x648 >= 0
x649 >= 0
x591 >= 0
x5b1 >= 0
x637 >= 0
x67c >= 0
x58c >= 0
x646 >= 0
x504 >= 0
x3bb >= 0
x67b >= 0
x665 >= 0
x4ce >= 0
x680 >= 0
x556 >= 0
x3be >= 0
x5aa >= 0
x5e3 >= 0
x65f >= 0
x667 >= 0
x634 >= 0
x54b >= 0
x684 >= 0
x405 >= 0
x5c6 >= 0
x340 >= 0
x409 >= 0
x587 >= 0
x30e >= 0
x685 >= 0
x358 >= 0
x4e1 >= 0
x64f >= 0
x679 >= 0
x63b >= 0
x5e7 >= 0
x63a >= 0
x531 >= 0
x64c >= 0
x678 >= 0
x42e >= 0
x4fe >= 0
x613 >= 0
x544 >= 0
x545 >= 0
x595 >= 0
xbe >= 0
x329 >= 0
x65a >= 0
x35c >= 0
x689 >= 0
x406 >= 0
x527 >= 0
x605 >= 0
x682 >= 0
x339 >= 0
x669 >= 0
x3dc >= 0
x2f3 >= 0
x4c6 >= 0
x33c >= 0
x62c >= 0
x3d9 >= 0
x3ba >= 0
x4ea >= 0
x647 >= 0
x2e4 >= 0
x67e >= 0
x640 >= 0
x65b >= 0
x64a >= 0
x64d >= 0
x12e >= 0
x642 >= 0
x65e >= 0
x5b8 >= 0
x66d >= 0
x671 >= 0
x60f >= 0
x4e9 >= 0
x62d >= 0
x4e0 >= 0
x623 >= 0
x663 >= 0
x4ec >= 0
x651 >= 0
x5cc >= 0
x64b >= 0
xf4 >= 0
x635 >= 0
x571 >= 0
x5ea >= 0
x62a >= 0
x552 >= 0
xbd >= 0
x327 >= 0
x1e0 >= 0
x5cb >= 0
x3c0 >= 0
x38b >= 0
x4d9 >= 0
x5b6 >= 0
x5c8 >= 0
x3db >= 0
x58e >= 0
x66a >= 0
x1f3 >= 0
x35b >= 0
x67d >= 0
x67f >= 0
x55e >= 0
x687 >= 0
x628 >= 0
x627 >= 0
x691 >= 0
x66b >= 0
x4c5 >= 0
x4da >= 0
x1d6 >= 0
x229 >= 0
x643 >= 0
xe1 >= 0
x1b3 >= 0
x65d >= 0
x5b7 >= 0
x683 >= 0
x2cc >= 0
x12 >= 0
x636 >= 0
x63f >= 0
x3c8 >= 0
x468 >= 0
x5b4 >= 0
xc1 >= 0
x62b >= 0
x63c >= 0
x633 >= 0
x588 >= 0
x661 >= 0
x40 >= 0
x241 >= 0
x3d0 >= 0
x386 >= 0
x5e4 >= 0
x51e >= 0
x656 >= 0
x42b >= 0
x23b >= 0
x65c >= 0
x653 >= 0
x33a >= 0
x641 >= 0
x50 >= 0
x68e >= 0
x500 >= 0
x686 >= 0
x5b3 >= 0
x68f >= 0
x66c >= 0
x4db >= 0
x593 >= 0
x433 >= 0
x5ad >= 0
x336 >= 0
x9b >= 0
x350 >= 0
xb6 >= 0
xb7 >= 0
x645 >= 0
x466 >= 0
x216 >= 0
x62e >= 0
x34f >= 0
x657 >= 0
x5b5 >= 0
x58a >= 0
x5ab >= 0
x60c >= 0
x237 >= 0
x110 >= 0
x670 >= 0
xc0 >= 0
x652 >= 0
x343 >= 0
x55b >= 0
x260 >= 0
x692 >= 0
x611 >= 0
x56f >= 0
xb8 >= 0
x65 >= 0
x245 >= 0
x58d >= 0
x4f7 >= 0
x307 >= 0
x536 >= 0
x2da >= 0
x388 >= 0
x198 >= 0
x58f >= 0
x631 >= 0
x38f >= 0
x155 >= 0
x4c9 >= 0
x23d >= 0
x530 >= 0
x3bd >= 0
x2ce >= 0
x555 >= 0
x68b >= 0
x316 >= 0
x6b >= 0
x610 >= 0
x31a >= 0
x385 >= 0
x2a6 >= 0
x302 >= 0
x68d >= 0
x609 >= 0
x3d6 >= 0
xbf >= 0
x668 >= 0
x543 >= 0
x3d >= 0
x4f2 >= 0
x5dc >= 0
x2f6 >= 0
x2dc >= 0
x239 >= 0
x4ff >= 0
x3d8 >= 0
x50f >= 0
x434 >= 0
x632 >= 0
x624 >= 0
x681 >= 0
x5af >= 0
x79 >= 0
x60e >= 0
x359 >= 0
x312 >= 0
x30a >= 0
x2eb >= 0
x2d2 >= 0
x15f >= 0
x25b >= 0
x526 >= 0
x54a >= 0
x28f >= 0
x25a >= 0
x664 >= 0
x436 >= 0
x5b2 >= 0
x688 >= 0
x672 >= 0
x3d5 >= 0
x42a >= 0
x1c6 >= 0
x626 >= 0
x23e >= 0
x51f >= 0
x3fb >= 0
x53f >= 0
x612 >= 0
x33e >= 0
x4d1 >= 0
x622 >= 0
x52 >= 0
x3fc >= 0
x658 >= 0
x629 >= 0
x379 >= 0
x2ef >= 0
x393 >= 0
x1ac >= 0
x17b >= 0
x2e2 >= 0
x2d4 >= 0
x2f8 >= 0
x5a8 >= 0
x518 >= 0
x5ed >= 0
x3bf >= 0
x528 >= 0
x496 >= 0
x599 >= 0
x537 >= 0
x22d >= 0
xf7 >= 0
x573 >= 0
x1f1 >= 0
x30c >= 0
x342 >= 0
x401 >= 0
x31c >= 0
x660 >= 0
x5e0 >= 0
x69 >= 0
x469 >= 0
x23c >= 0
x56d >= 0
x62f >= 0
x4bc >= 0
x325 >= 0
x9c >= 0
x437 >= 0
x387 >= 0
xee >= 0
x675 >= 0
x3bc >= 0
x117 >= 0
x3fa >= 0
x5e1 >= 0
x662 >= 0
x510 >= 0
x650 >= 0
x3ca >= 0
x34e >= 0

Generals
x1
 x60a x592 x575 x63e x63d x5e6 x42f x4cf x473 x639
 x55a x690 x474 x68c x506 x32b x408 x666 x2f1 x58b
 x3cd x655 x551 x625 x597 x654 x55d x68a x64e x4cc
 x659 x630 x638 x5e9 x67a x427 x5ec x4cb x644 x648
 x649 x591 x5b1 x637 x67c x58c x646 x504 x3bb x67b
 x665 x4ce x680 x556 x3be x5aa x5e3 x65f x667 x634
 x54b x684 x405 x5c6 x340 x409 x587 x30e x685 x358
 x4e1 x64f x679 x63b x5e7 x63a x531 x64c x678 x42e
 x4fe x613 x544 x545 x595 xbe x329 x65a x35c x689
 x406 x527 x605 x682 x339 x669 x3dc x2f3 x4c6 x33c
 x62c x3d9 x3ba x4ea x647 x2e4 x67e x640 x65b x64a
 x64d x12e x642 x65e x5b8 x66d x671 x60f x4e9 x62d
 x4e0 x623 x663 x4ec x651 x5cc x64b xf4 x635 x571
 x5ea x62a x552 xbd x327 x1e0 x5cb x3c0 x38b x4d9
 x5b6 x5c8 x3db x58e x66a x1f3 x35b x67d x67f x55e
 x687 x628 x627 x691 x66b x4c5 x4da x1d6 x229 x643
 xe1 x1b3 x65d x5b7 x683 x2cc x12 x636 x63f x3c8
 x468 x5b4 xc1 x62b x63c x633 x588 x661 x40 x241
 x3d0 x386 x5e4 x51e x656 x42b x23b x65c x653 x33a
 x641 x50 x68e x500 x686 x5b3 x68f x66c x4db x593
 x433 x5ad x336 x9b x350 xb6 xb7 x645 x466 x216
 x62e x34f x657 x5b5 x58a x5ab x60c x237 x110 x670
 xc0 x652 x343 x55b x260 x692 x611 x56f xb8 x65
 x245 x58d x4f7 x307 x536 x2da x388 x198 x58f x631
 x38f x155 x4c9 x23d x530 x3bd x2ce x555 x68b x316
 x6b x610 x31a x385 x2a6 x302 x68d x609 x3d6 xbf
 x668 x543 x3d x4f2 x5dc x2f6 x2dc x239 x4ff x3d8
 x50f x434 x632 x624 x681 x5af x79 x60e x359 x312
 x30a x2eb x2d2 x15f x25b x526 x54a x28f x25a x664
 x436 x5b2 x688 x672 x3d5 x42a x1c6 x626 x23e x51f
 x3fb x53f x612 x33e x4d1 x622 x52 x3fc x658 x629
 x379 x2ef x393 x1ac x17b x2e2 x2d4 x2f8 x5a8 x518
 x5ed x3bf x528 x496 x599 x537 x22d xf7 x573 x1f1
 x30c x342 x401 x31c x660 x5e0 x69 x469 x23c x56d
 x62f x4bc x325 x9c x437 x387 xee x675 x3bc x117
 x3fa x5e1 x662 x510 x650 x3ca x34e



End
